p cnf 250 668
1 2 0
3 4 0
5 6 0
7 8 0
9 10 0
11 12 0
13 14 0
15 16 0
17 18 0
19 20 0
21 22 0
23 24 0
25 26 0
27 28 0
29 30 0
31 32 0
33 34 0
35 36 0
37 38 0
39 40 0
41 42 0
43 44 0
45 46 0
47 48 0
49 50 0
51 52 0
53 54 0
55 56 0
57 58 0
59 60 0
61 62 0
63 64 0
65 66 0
67 68 0
69 70 0
71 72 0
73 74 0
75 76 0
77 78 0
79 80 0
81 82 0
83 84 0
85 86 0
87 88 0
89 90 0
91 92 0
93 94 0
95 96 0
97 98 0
99 100 0
101 102 0
103 104 0
105 106 0
107 108 0
109 110 0
111 112 0
113 114 0
115 116 0
117 118 0
119 120 0
121 122 0
123 124 0
125 126 0
127 128 0
129 130 0
131 132 0
133 134 0
135 136 0
137 138 0
139 140 0
141 142 0
143 144 0
145 146 0
147 148 0
149 150 0
151 152 0
153 154 0
155 156 0
157 158 0
159 160 0
161 162 0
163 164 0
165 166 0
167 168 0
169 170 0
171 172 0
173 174 0
175 176 0
177 178 0
179 180 0
181 182 0
183 184 0
185 186 0
187 188 0
189 190 0
191 192 0
193 194 0
195 196 0
197 198 0
199 200 0
201 202 0
203 204 0
205 206 0
207 208 0
209 210 0
211 212 0
213 214 0
215 216 0
217 218 0
219 220 0
221 222 0
223 224 0
225 226 0
227 228 0
229 230 0
231 232 0
233 234 0
235 236 0
237 238 0
239 240 0
241 242 0
243 244 0
245 246 0
247 248 0
249 250 0
-1 -49 0
-2 -50 0
-1 -89 0
-2 -90 0
-1 -109 0
-2 -110 0
-1 -159 0
-2 -160 0
-3 -43 0
-4 -44 0
-3 -163 0
-4 -164 0
-5 -47 0
-6 -48 0
-5 -197 0
-6 -198 0
-5 -205 0
-6 -206 0
-7 -53 0
-8 -54 0
-7 -71 0
-8 -72 0
-7 -249 0
-8 -250 0
-11 -43 0
-12 -44 0
-11 -73 0
-12 -74 0
-11 -169 0
-12 -170 0
-11 -217 0
-12 -218 0
-11 -219 0
-12 -220 0
-11 -241 0
-12 -242 0
-13 -41 0
-14 -42 0
-13 -191 0
-14 -192 0
-15 -235 0
-16 -236 0
-17 -243 0
-18 -244 0
-19 -27 0
-20 -28 0
-19 -35 0
-20 -36 0
-19 -59 0
-20 -60 0
-19 -73 0
-20 -74 0
-19 -91 0
-20 -92 0
-19 -105 0
-20 -106 0
-19 -107 0
-20 -108 0
-19 -195 0
-20 -196 0
-21 -129 0
-22 -130 0
-21 -161 0
-22 -162 0
-21 -183 0
-22 -184 0
-23 -79 0
-24 -80 0
-23 -127 0
-24 -128 0
-23 -211 0
-24 -212 0
-25 -101 0
-26 -102 0
-25 -153 0
-26 -154 0
-25 -179 0
-26 -180 0
-25 -221 0
-26 -222 0
-27 -77 0
-28 -78 0
-27 -85 0
-28 -86 0
-27 -91 0
-28 -92 0
-27 -195 0
-28 -196 0
-27 -229 0
-28 -230 0
-29 -57 0
-30 -58 0
-31 -115 0
-32 -116 0
-31 -123 0
-32 -124 0
-33 -37 0
-34 -38 0
-33 -151 0
-34 -152 0
-35 -59 0
-36 -60 0
-35 -73 0
-36 -74 0
-35 -105 0
-36 -106 0
-35 -107 0
-36 -108 0
-35 -169 0
-36 -170 0
-35 -217 0
-36 -218 0
-37 -151 0
-38 -152 0
-37 -159 0
-38 -160 0
-39 -125 0
-40 -126 0
-39 -143 0
-40 -144 0
-41 -95 0
-42 -96 0
-41 -191 0
-42 -192 0
-41 -225 0
-42 -226 0
-43 -73 0
-44 -74 0
-43 -169 0
-44 -170 0
-43 -217 0
-44 -218 0
-47 -197 0
-48 -198 0
-49 -89 0
-50 -90 0
-49 -109 0
-50 -110 0
-49 -159 0
-50 -160 0
-51 -97 0
-52 -98 0
-51 -135 0
-52 -136 0
-53 -71 0
-54 -72 0
-53 -249 0
-54 -250 0
-55 -87 0
-56 -88 0
-55 -111 0
-56 -112 0
-55 -129 0
-56 -130 0
-55 -131 0
-56 -132 0
-55 -233 0
-56 -234 0
-57 -181 0
-58 -182 0
-59 -73 0
-60 -74 0
-59 -105 0
-60 -106 0
-59 -107 0
-60 -108 0
-59 -217 0
-60 -218 0
-61 -131 0
-62 -132 0
-61 -175 0
-62 -176 0
-61 -201 0
-62 -202 0
-61 -213 0
-62 -214 0
-61 -233 0
-62 -234 0
-63 -189 0
-64 -190 0
-63 -207 0
-64 -208 0
-65 -67 0
-66 -68 0
-65 -103 0
-66 -104 0
-67 -243 0
-68 -244 0
-69 -101 0
-70 -102 0
-69 -117 0
-70 -118 0
-69 -153 0
-70 -154 0
-69 -157 0
-70 -158 0
-69 -221 0
-70 -222 0
-71 -173 0
-72 -174 0
-71 -215 0
-72 -216 0
-71 -239 0
-72 -240 0
-71 -249 0
-72 -250 0
-73 -105 0
-74 -106 0
-73 -169 0
-74 -170 0
-73 -217 0
-74 -218 0
-75 -81 0
-76 -82 0
-75 -181 0
-76 -182 0
-77 -201 0
-78 -202 0
-77 -229 0
-78 -230 0
-81 -181 0
-82 -182 0
-83 -149 0
-84 -150 0
-83 -187 0
-84 -188 0
-85 -105 0
-86 -106 0
-85 -107 0
-86 -108 0
-87 -111 0
-88 -112 0
-87 -129 0
-88 -130 0
-87 -131 0
-88 -132 0
-87 -161 0
-88 -162 0
-87 -233 0
-88 -234 0
-89 -109 0
-90 -110 0
-89 -159 0
-90 -160 0
-91 -195 0
-92 -196 0
-91 -229 0
-92 -230 0
-93 -155 0
-94 -156 0
-93 -165 0
-94 -166 0
-95 -191 0
-96 -192 0
-95 -199 0
-96 -200 0
-97 -135 0
-98 -136 0
-99 -137 0
-100 -138 0
-99 -149 0
-100 -150 0
-99 -167 0
-100 -168 0
-99 -171 0
-100 -172 0
-99 -177 0
-100 -178 0
-99 -223 0
-100 -224 0
-101 -117 0
-102 -118 0
-101 -153 0
-102 -154 0
-101 -157 0
-102 -158 0
-101 -221 0
-102 -222 0
-103 -133 0
-104 -134 0
-103 -193 0
-104 -194 0
-105 -107 0
-106 -108 0
-109 -159 0
-110 -160 0
-111 -161 0
-112 -162 0
-111 -205 0
-112 -206 0
-113 -219 0
-114 -220 0
-113 -235 0
-114 -236 0
-113 -241 0
-114 -242 0
-113 -247 0
-114 -248 0
-115 -123 0
-116 -124 0
-115 -177 0
-116 -178 0
-117 -123 0
-118 -124 0
-117 -157 0
-118 -158 0
-117 -221 0
-118 -222 0
-119 -147 0
-120 -148 0
-119 -181 0
-120 -182 0
-121 -147 0
-122 -148 0
-125 -143 0
-126 -144 0
-125 -165 0
-126 -166 0
-127 -141 0
-128 -142 0
-127 -145 0
-128 -146 0
-129 -161 0
-130 -162 0
-129 -183 0
-130 -184 0
-131 -175 0
-132 -176 0
-131 -201 0
-132 -202 0
-131 -233 0
-132 -234 0
-133 -193 0
-134 -194 0
-137 -149 0
-138 -150 0
-137 -167 0
-138 -168 0
-137 -171 0
-138 -172 0
-139 -211 0
-140 -212 0
-139 -231 0
-140 -232 0
-141 -145 0
-142 -146 0
-145 -199 0
-146 -200 0
-147 -181 0
-148 -182 0
-151 -185 0
-152 -186 0
-153 -221 0
-154 -222 0
-167 -171 0
-168 -172 0
-167 -177 0
-168 -178 0
-167 -223 0
-168 -224 0
-169 -217 0
-170 -218 0
-171 -177 0
-172 -178 0
-171 -223 0
-172 -224 0
-173 -203 0
-174 -204 0
-173 -215 0
-174 -216 0
-173 -239 0
-174 -240 0
-173 -245 0
-174 -246 0
-173 -249 0
-174 -250 0
-175 -201 0
-176 -202 0
-175 -213 0
-176 -214 0
-177 -223 0
-178 -224 0
-183 -227 0
-184 -228 0
-189 -207 0
-190 -208 0
-191 -225 0
-192 -226 0
-195 -241 0
-196 -242 0
-195 -247 0
-196 -248 0
-201 -229 0
-202 -230 0
-201 -233 0
-202 -234 0
-203 -215 0
-204 -216 0
-203 -245 0
-204 -246 0
-211 -231 0
-212 -232 0
-213 -237 0
-214 -238 0
-215 -239 0
-216 -240 0
-215 -245 0
-216 -246 0
-215 -249 0
-216 -250 0
-219 -241 0
-220 -242 0
-219 -247 0
-220 -248 0
-239 -249 0
-240 -250 0
-241 -247 0
-242 -248 0
-2 -1 0
-4 -3 0
-6 -5 0
-8 -7 0
-10 -9 0
-12 -11 0
-14 -13 0
-16 -15 0
-18 -17 0
-20 -19 0
-22 -21 0
-24 -23 0
-26 -25 0
-28 -27 0
-30 -29 0
-32 -31 0
-34 -33 0
-36 -35 0
-38 -37 0
-40 -39 0
-42 -41 0
-44 -43 0
-46 -45 0
-48 -47 0
-50 -49 0
-52 -51 0
-54 -53 0
-56 -55 0
-58 -57 0
-60 -59 0
-62 -61 0
-64 -63 0
-66 -65 0
-68 -67 0
-70 -69 0
-72 -71 0
-74 -73 0
-76 -75 0
-78 -77 0
-80 -79 0
-82 -81 0
-84 -83 0
-86 -85 0
-88 -87 0
-90 -89 0
-92 -91 0
-94 -93 0
-96 -95 0
-98 -97 0
-100 -99 0
-102 -101 0
-104 -103 0
-106 -105 0
-108 -107 0
-110 -109 0
-112 -111 0
-114 -113 0
-116 -115 0
-118 -117 0
-120 -119 0
-122 -121 0
-124 -123 0
-126 -125 0
-128 -127 0
-130 -129 0
-132 -131 0
-134 -133 0
-136 -135 0
-138 -137 0
-140 -139 0
-142 -141 0
-144 -143 0
-146 -145 0
-148 -147 0
-150 -149 0
-152 -151 0
-154 -153 0
-156 -155 0
-158 -157 0
-160 -159 0
-162 -161 0
-164 -163 0
-166 -165 0
-168 -167 0
-170 -169 0
-172 -171 0
-174 -173 0
-176 -175 0
-178 -177 0
-180 -179 0
-182 -181 0
-184 -183 0
-186 -185 0
-188 -187 0
-190 -189 0
-192 -191 0
-194 -193 0
-196 -195 0
-198 -197 0
-200 -199 0
-202 -201 0
-204 -203 0
-206 -205 0
-208 -207 0
-210 -209 0
-212 -211 0
-214 -213 0
-216 -215 0
-218 -217 0
-220 -219 0
-222 -221 0
-224 -223 0
-226 -225 0
-228 -227 0
-230 -229 0
-232 -231 0
-234 -233 0
-236 -235 0
-238 -237 0
-240 -239 0
-242 -241 0
-244 -243 0
-246 -245 0
-248 -247 0
-250 -249 0
